
Gurobi 13.0.0 (linux64) logging started Sat Jan 17 19:33:53 2026

Set parameter LogFile to value "../experiments/network-n_60_s_0_rp_0-app_set-id_61_25_apps/submip_40_epr1_model_gurobi.log"
Set parameter TimeLimit to value 7.4428402977799124e+02
Gurobi Optimizer version 13.0.0 build v13.0.0rc1 (linux64 - "Ubuntu 24.04.3 LTS")

CPU model: Intel(R) Core(TM) Ultra 7 165H, instruction set [SSE2|AVX|AVX2]
Thread count: 22 physical cores, 22 logical processors, using up to 22 threads

Non-default parameters:
TimeLimit  7.4428402977799124e+02
LogToConsole  0

Academic license 2539022 - for non-commercial use only - registered to al___@studenti.unimi.it
Optimize a model with 49764 rows, 9720 columns and 112995 nonzeros (Min)
Model fingerprint: 0x34ff1140
Model has 9720 linear objective coefficients
Model has 200 quadratic constraints
Variable types: 0 continuous, 9720 integer (9720 binary)
Coefficient statistics:
  Matrix range     [1e+00, 9e+02]
  QMatrix range    [5e+01, 2e+02]
  Objective range  [1e+01, 2e+02]
  Bounds range     [1e+00, 1e+00]
  RHS range        [1e+00, 1e+09]
  QRHS range       [1e+02, 6e+02]
Presolve removed 49212 rows and 8106 columns
Presolve time: 0.16s
Presolved: 12645 rows, 13521 columns, 78385 nonzeros
Variable types: 0 continuous, 13521 integer (13521 binary)

Root relaxation: objective 6.823149e+03, 3033 iterations, 0.35 seconds (0.50 work units)

    Nodes    |    Current Node    |     Objective Bounds      |     Work
 Expl Unexpl |  Obj  Depth IntInf | Incumbent    BestBd   Gap | It/Node Time

     0     0 6823.14940    0  176          - 6823.14940      -     -    0s
     0     0 6938.49204    0  226          - 6938.49204      -     -    2s
     0     0 7063.04073    0  275          - 7063.04073      -     -    2s
     0     0 7069.68057    0  272          - 7069.68057      -     -    2s
     0     0 7069.82325    0  273          - 7069.82325      -     -    3s
     0     0 7162.36072    0  290          - 7162.36072      -     -    4s
     0     0 7257.40014    0  326          - 7257.40014      -     -    4s
     0     0 7312.46576    0  358          - 7312.46576      -     -    5s
     0     0 7321.12772    0  390          - 7321.12772      -     -    5s
     0     0 7323.49722    0  381          - 7323.49722      -     -    5s
     0     0 7442.35580    0  347          - 7442.35580      -     -    6s
     0     0 7520.04968    0  398          - 7520.04968      -     -    7s
     0     0 7649.05926    0  411          - 7649.05926      -     -    7s
     0     0 7712.15878    0  435          - 7712.15878      -     -    8s
     0     0 7729.31769    0  441          - 7729.31769      -     -    8s
     0     0 infeasible    0               - infeasible      -     -    8s

Cutting planes:
  Gomory: 2
  Cover: 90
  Implied bound: 2
  Clique: 88
  MIR: 85
  Knapsack: 34
  StrongCG: 71
  GUB cover: 16
  Zero half: 11
  RLT: 249
  Relax-and-lift: 62
  BQP: 35

Explored 1 nodes (17435 simplex iterations) in 8.76 seconds (9.54 work units)
Thread count was 22 (of 22 available processors)

Solution count 0

Model is infeasible
Best objective -, best bound -, gap -

User-callback calls 1396, time in user-callback 0.00 sec
